Sat 19 May 19:12:03 CEST 2018
CPXPARAM_TimeLimit                               45
CPXPARAM_Threads                                 1
CPXPARAM_MIP_Strategy_CallbackReducedLP          0
Tried aggregator 2 times.
MIP Presolve eliminated 1044 rows and 906 columns.
MIP Presolve modified 192 coefficients.
Aggregator did 178 substitutions.
Reduced MIP has 494 rows, 573 columns, and 1564 nonzeros.
Reduced MIP has 566 binaries, 7 generals, 0 SOSs, and 132 indicators.
Presolve time = 0.00 sec. (3.26 ticks)
Probing time = 0.01 sec. (3.28 ticks)
Cover probing fixed 0 vars, tightened 7 bounds.
Tried aggregator 3 times.
MIP Presolve eliminated 26 rows and 0 columns.
MIP Presolve modified 24 coefficients.
Aggregator did 314 substitutions.
Reduced MIP has 154 rows, 259 columns, and 648 nonzeros.
Reduced MIP has 252 binaries, 7 generals, 0 SOSs, and 132 indicators.
Presolve time = 0.00 sec. (2.21 ticks)
Probing time = 0.00 sec. (1.13 ticks)
Tried aggregator 1 time.
Reduced MIP has 154 rows, 259 columns, and 648 nonzeros.
Reduced MIP has 252 binaries, 7 generals, 0 SOSs, and 132 indicators.
Presolve time = 0.00 sec. (1.13 ticks)
Probing time = 0.00 sec. (1.13 ticks)
Clique table members: 928.
MIP emphasis: balance optimality and feasibility.
MIP search method: dynamic search.
Parallel mode: none, using 1 thread.
Root relaxation solution time = 0.00 sec. (0.35 ticks)

        Nodes                                         Cuts/
   Node  Left     Objective  IInf  Best Integer    Best Bound    ItCnt     Gap

      0     0        2.8333   149                      2.8333       37         
      0     0        2.8333    80                Cliques: 138      167         
      0     0        3.3636    38                   Cuts: 150      296         
      0     0        3.4706    40                    Cuts: 80      347         
      0     0        3.4706    53                   Cuts: 141      457         
      0     0        3.5724    55                    Cuts: 78      493         
      0     0        3.6332    46                   Cuts: 134      541         
      0     0        3.7164    51                   Cuts: 141      604         
      0     0        3.7164    52                   Cuts: 138      637         
*     0+    0                           12.0000        3.7164            69.03%
      0     0        cutoff             12.0000        3.7164      648   69.03%
Elapsed time = 0.17 sec. (130.24 ticks, tree = 0.01 MB, solutions = 1)

Clique cuts applied:  63
Implied bound cuts applied:  17
Zero-half cuts applied:  16
Gomory fractional cuts applied:  1

Root node processing (before b&c):
  Real time             =    0.17 sec. (130.30 ticks)
Sequential b&c:
  Real time             =    0.00 sec. (0.00 ticks)
                          ------------
Total (root+branch&cut) =    0.17 sec. (130.30 ticks)
   | W
 L | 0 1 2 
----------
 0 | 6 6 . 
 1 | 6 6 . 
 2 | . 5 5 
 3 | . 5 5 
 4 | . 4 4 
 5 | . 4 4 
 6 | . 2 2 
 7 | . 2 2 
 8 | 1 1 . 
 9 | 1 1 . 
10 | . 3 3 
11 | . 3 3 

Boxes' corners:      (w,l)
    Box 1 is at 
        top left     (0,8)
        bottom right (1,9)

    Box 2 is at 
        top left     (1,6)
        bottom right (2,7)

    Box 3 is at 
        top left     (1,10)
        bottom right (2,11)

    Box 4 is at 
        top left     (1,4)
        bottom right (2,5)

    Box 5 is at 
        top left     (1,2)
        bottom right (2,3)

    Box 6 is at 
        top left     (0,0)
        bottom right (1,1)

    Roll length used: 12
In 0.17 seconds
